c description: Random 3-CNF over 19 variables and 81 clauses
c generator: CNFgen (0.9.2)
c copyright: (C) 2012-2022 Massimo Lauria <massimo.lauria@uniroma1.it>
c url: https://massimolauria.net/cnfgen
c command line: cnfgen --output CNF_4.28/19_bit_81_412.cnf randkcnf 3 19 81
c
p cnf 19 81
1 9 -12 0
-6 9 14 0
-3 -5 15 0
8 11 -14 0
2 8 -17 0
11 18 19 0
-13 -16 -17 0
-2 -5 10 0
-2 -10 -12 0
-11 12 19 0
12 -13 -18 0
-1 10 -16 0
5 12 -14 0
-2 11 14 0
-4 7 12 0
-14 -15 17 0
7 -12 19 0
1 9 -16 0
4 -8 -19 0
1 6 -19 0
-1 -9 -19 0
-4 8 -14 0
6 10 17 0
3 11 -19 0
-6 -10 -18 0
4 -6 11 0
3 7 11 0
-8 -14 17 0
-11 15 -16 0
-7 8 9 0
5 -8 -18 0
-7 9 -13 0
-3 6 12 0
2 -3 -16 0
-12 14 18 0
7 11 14 0
-5 8 -18 0
-8 -11 -12 0
10 -15 -17 0
-7 8 12 0
9 -11 -14 0
4 9 12 0
5 17 -18 0
-11 -14 17 0
-6 -11 -13 0
-1 7 18 0
4 13 16 0
2 6 -10 0
1 -7 -16 0
-3 6 10 0
10 13 17 0
-3 -10 -15 0
-1 3 11 0
-3 -14 -18 0
2 7 -11 0
-7 16 -17 0
11 12 -14 0
-2 -5 7 0
2 7 8 0
3 -6 19 0
1 -5 -18 0
2 -5 -10 0
-4 7 14 0
1 -5 -12 0
3 -5 -18 0
-7 -13 19 0
-4 14 -15 0
4 -11 -19 0
5 7 -19 0
8 16 18 0
4 -7 15 0
-10 -14 -16 0
5 -18 -19 0
-2 -5 9 0
-5 -16 17 0
-9 -13 -18 0
-2 -3 -15 0
-4 15 -19 0
4 10 17 0
1 2 17 0
8 15 19 0
